100
1000
200
0 0
-34 15
-34 15
-34 15
-34 15
-34 15
-34 15
-34 15
-34 15
-34 15
-34 15
-34 15
-34 15
-34 15
-34 15
-34 15
-34 15
-34 15
-34 15
-34 15
-34 15
-6 15
-6 15
-6 15
-6 15
-6 15
-6 15
-6 15
-6 15
-6 15
-6 15
-6 15
-6 15
-6 15
-6 15
-6 15
-6 15
-6 15
-6 15
-6 15
-6 15
-24 1
-24 1
-24 1
-24 1
-24 1
-24 1
-24 1
-24 1
-24 1
-24 1
-24 1
-24 1
-24 1
-24 1
-24 1
-24 1
-24 1
-24 1
-24 1
-24 1
38 -13
38 -13
38 -13
38 -13
38 -13
38 -13
38 -13
38 -13
38 -13
38 -13
38 -13
38 -13
38 -13
38 -13
38 -13
38 -13
38 -13
38 -13
38 -13
38 -13
13 6
13 6
13 6
13 6
13 6
13 6
13 6
13 6
13 6
13 6
13 6
13 6
13 6
13 6
13 6
13 6
13 6
13 6
13 6
13 6
17 -11
20 -40
10 -15
-22 -28
-9 -9
-19 40
-6 34
1 -10
20 -1
-11 15
7 -22
33 -5
-1 37
7 -10
-8 -21
25 -23
-35 28
15 -40
26 -9
11 -13
17 -11
20 -40
10 -15
-22 -28
-9 -9
-19 40
-6 34
1 -10
20 -1
-11 15
7 -22
33 -5
-1 37
7 -10
-8 -21
25 -23
-35 28
15 -40
26 -9
11 -13
17 -11
20 -40
10 -15
-22 -28
-9 -9
-19 40
-6 34
1 -10
20 -1
-11 15
7 -22
33 -5
-1 37
7 -10
-8 -21
25 -23
-35 28
15 -40
26 -9
11 -13
17 -11
20 -40
10 -15
-22 -28
-9 -9
-19 40
-6 34
1 -10
20 -1
-11 15
7 -22
33 -5
-1 37
7 -10
-8 -21
25 -23
-35 28
15 -40
26 -9
11 -13
17 -11
20 -40
10 -15
-22 -28
-9 -9
-19 40
-6 34
1 -10
20 -1
-11 15
7 -22
33 -5
-1 37
7 -10
-8 -21
25 -23
-35 28
15 -40
26 -9
11 -13
0 0 
53
54
55
59
59
59
53
57
52
53
56
52
56
54
54
55
51
55
54
52
59
56
52
53
56
60
52
59
54
57
60
53
56
54
56
55
56
56
54
54
56
59
56
60
57
56
55
56
60
53
54
55
53
56
54
53
53
52
54
57
52
52
60
53
54
57
51
56
56
56
59
55
54
57
56
55
55
53
56
55
51
54
55
56
53
52
52
53
56
52
53
53
57
57
56
56
60
53
56
54
53
54
55
59
59
59
53
57
52
53
56
52
56
54
54
55
51
55
54
52
59
56
52
53
56
60
52
59
54
57
60
53
56
54
56
55
56
56
54
54
56
59
56
60
57
56
55
56
60
53
54
55
53
56
54
53
53
52
54
57
52
52
60
53
54
57
51
56
56
56
59
55
54
57
56
55
55
53
56
55
51
54
55
56
53
52
52
53
56
52
53
53
57
57
56
56
60
53
56
54
